btor2/bv/2019/goel/mul7.btor2.mlir.opt.ll.smt2
;; Produced with Z3_solver_to_string()
(declare-fun sea.sp0_0 () (_ BitVec 64))
(declare-fun main@%_12_0 () (_ BitVec 128))
(declare-fun main@%_17_0 () (_ BitVec 8))
(declare-fun main@%_32_0 () (_ BitVec 128))
(declare-fun main@%_41_0 () (_ BitVec 8))
(declare-fun main@%_78_0 () (_ BitVec 128))
(declare-fun main@%_87_0 () (_ BitVec 8))
(declare-fun main@%_104_0 () (_ BitVec 128))
(declare-fun main@%_113_0 () (_ BitVec 8))
(declare-fun main@%_130_0 () (_ BitVec 128))
(declare-fun main@%_139_0 () (_ BitVec 8))
(declare-fun main@%_156_0 () (_ BitVec 128))
(declare-fun main@%_165_0 () (_ BitVec 8))
(declare-fun main@%_182_0 () (_ BitVec 128))
(declare-fun main@%_191_0 () (_ BitVec 8))
(declare-fun main@%_208_0 () (_ BitVec 128))
(declare-fun main@%_217_0 () (_ BitVec 8))
(declare-fun main@%_234_0 () (_ BitVec 128))
(declare-fun main@%_243_0 () (_ BitVec 8))
(declare-fun main@%_260_0 () (_ BitVec 128))
(declare-fun main@%_269_0 () (_ BitVec 8))
(declare-fun main@%_286_0 () (_ BitVec 128))
(declare-fun main@%_295_0 () (_ BitVec 8))
(declare-fun main@%_312_0 () (_ BitVec 128))
(declare-fun main@%_321_0 () (_ BitVec 8))
(declare-fun main@%_338_0 () (_ BitVec 128))
(declare-fun main@%_347_0 () (_ BitVec 8))
(declare-fun main@%_364_0 () (_ BitVec 128))
(declare-fun main@%_373_0 () (_ BitVec 8))
(declare-fun main@%_390_0 () (_ BitVec 128))
(declare-fun main@%_399_0 () (_ BitVec 8))
(declare-fun main@%_416_0 () (_ BitVec 128))
(declare-fun main@%_425_0 () (_ BitVec 8))
(declare-fun main@%_442_0 () (_ BitVec 128))
(declare-fun main@%_451_0 () (_ BitVec 8))
(declare-fun main@%_468_0 () (_ BitVec 128))
(declare-fun main@%_477_0 () (_ BitVec 8))
(declare-fun main@%_10_0 () (_ BitVec 128))
(declare-fun main@%_21_0 () (_ BitVec 8))
(declare-fun main@%_30_0 () (_ BitVec 128))
(declare-fun main@%_45_0 () (_ BitVec 8))
(declare-fun main@%_76_0 () (_ BitVec 128))
(declare-fun main@%_91_0 () (_ BitVec 8))
(declare-fun main@%_102_0 () (_ BitVec 128))
(declare-fun main@%_117_0 () (_ BitVec 8))
(declare-fun main@%_128_0 () (_ BitVec 128))
(declare-fun main@%_143_0 () (_ BitVec 8))
(declare-fun main@%_154_0 () (_ BitVec 128))
(declare-fun main@%_169_0 () (_ BitVec 8))
(declare-fun main@%_180_0 () (_ BitVec 128))
(declare-fun main@%_195_0 () (_ BitVec 8))
(declare-fun main@%_206_0 () (_ BitVec 128))
(declare-fun main@%_221_0 () (_ BitVec 8))
(declare-fun main@%_232_0 () (_ BitVec 128))
(declare-fun main@%_247_0 () (_ BitVec 8))
(declare-fun main@%_258_0 () (_ BitVec 128))
(declare-fun main@%_273_0 () (_ BitVec 8))
(declare-fun main@%_284_0 () (_ BitVec 128))
(declare-fun main@%_299_0 () (_ BitVec 8))
(declare-fun main@%_310_0 () (_ BitVec 128))
(declare-fun main@%_325_0 () (_ BitVec 8))
(declare-fun main@%_336_0 () (_ BitVec 128))
(declare-fun main@%_351_0 () (_ BitVec 8))
(declare-fun main@%_362_0 () (_ BitVec 128))
(declare-fun main@%_377_0 () (_ BitVec 8))
(declare-fun main@%_388_0 () (_ BitVec 128))
(declare-fun main@%_403_0 () (_ BitVec 8))
(declare-fun main@%_414_0 () (_ BitVec 128))
(declare-fun main@%_429_0 () (_ BitVec 8))
(declare-fun main@%_440_0 () (_ BitVec 128))
(declare-fun main@%_455_0 () (_ BitVec 8))
(declare-fun main@%_466_0 () (_ BitVec 128))
(declare-fun main@%_481_0 () (_ BitVec 8))
(declare-fun main@%_519_0 () (_ BitVec 128))
(declare-fun main@%_6_0 () (_ BitVec 16))
(declare-fun main@%_518_0 () (_ BitVec 128))
(declare-fun main@%_493_0 () (_ BitVec 128))
(declare-fun main@%_494_0 () (_ BitVec 8))
(declare-fun main@%_492_0 () (_ BitVec 128))
(declare-fun main@%_496_0 () (_ BitVec 8))
(assert (= #b000 ((_ extract 2 0) sea.sp0_0)))
(assert (bvule sea.sp0_0 #x00000000c0000000))
(assert (bvuge sea.sp0_0 #x00000000bf700000))
(assert (let ((a!1 (and (= main@%_10_0 #x00000000000000000000000000badb0b)
                (bvugt ((_ extract 9 0) main@%_6_0) #b1111101000)
                (= main@%_12_0 #xffffffffffffffffffffffffdeadbeef)))
      (a!2 ((_ zero_extend 128)
             (ite (= ((_ extract 0 0) main@%_21_0) #b1)
                  main@%_10_0
                  #x00000000000000000000000000000000)))
      (a!3 ((_ zero_extend 128)
             (ite (= ((_ extract 0 0) main@%_17_0) #b1)
                  main@%_12_0
                  #x00000000000000000000000000000000)))
      (a!4 (ite (and (= main@%_30_0 #x00000000000000000000000000badb0b)
                     (bvugt ((_ extract 9 0) main@%_6_0) #b1111101000)
                     (= main@%_32_0 #xffffffffffffffffffffffffdeadbeef))
                #x0000000000000000000000000000000000000000000000000000000000000001
                #x0000000000000000000000000000000000000000000000000000000000000000))
      (a!6 (ite (= ((_ extract 0 0) main@%_45_0) #b1)
                main@%_30_0
                (ite (= ((_ extract 0 0) main@%_21_0) #b1)
                     main@%_10_0
                     #x00000000000000000000000000000000)))
      (a!7 (ite (= ((_ extract 0 0) main@%_41_0) #b1)
                main@%_32_0
                (ite (= ((_ extract 0 0) main@%_17_0) #b1)
                     main@%_12_0
                     #x00000000000000000000000000000000)))
      (a!8 (ite (and (= main@%_76_0 #x00000000000000000000000000badb0b)
                     (bvugt ((_ extract 9 0) main@%_6_0) #b1111101000)
                     (= main@%_78_0 #xffffffffffffffffffffffffdeadbeef))
                #x0000000000000000000000000000000000000000000000000000000000000001
                #x0000000000000000000000000000000000000000000000000000000000000000))
      (a!12 (ite (and (= main@%_102_0 #x00000000000000000000000000badb0b)
                      (bvugt ((_ extract 9 0) main@%_6_0) #b1111101000)
                      (= main@%_104_0 #xffffffffffffffffffffffffdeadbeef))
                 #x0000000000000000000000000000000000000000000000000000000000000001
                 #x0000000000000000000000000000000000000000000000000000000000000000))
      (a!16 (ite (and (= main@%_128_0 #x00000000000000000000000000badb0b)
                      (bvugt ((_ extract 9 0) main@%_6_0) #b1111101000)
                      (= main@%_130_0 #xffffffffffffffffffffffffdeadbeef))
                 #x0000000000000000000000000000000000000000000000000000000000000001
                 #x0000000000000000000000000000000000000000000000000000000000000000))
      (a!20 (ite (and (= main@%_154_0 #x00000000000000000000000000badb0b)
                      (bvugt ((_ extract 9 0) main@%_6_0) #b1111101000)
                      (= main@%_156_0 #xffffffffffffffffffffffffdeadbeef))
                 #x0000000000000000000000000000000000000000000000000000000000000001
                 #x0000000000000000000000000000000000000000000000000000000000000000))
      (a!24 (ite (and (= main@%_180_0 #x00000000000000000000000000badb0b)
                      (bvugt ((_ extract 9 0) main@%_6_0) #b1111101000)
                      (= main@%_182_0 #xffffffffffffffffffffffffdeadbeef))
                 #x0000000000000000000000000000000000000000000000000000000000000001
                 #x0000000000000000000000000000000000000000000000000000000000000000))
      (a!28 (ite (and (= main@%_206_0 #x00000000000000000000000000badb0b)
                      (bvugt ((_ extract 9 0) main@%_6_0) #b1111101000)
                      (= main@%_208_0 #xffffffffffffffffffffffffdeadbeef))
                 #x0000000000000000000000000000000000000000000000000000000000000001
                 #x0000000000000000000000000000000000000000000000000000000000000000))
      (a!32 (ite (and (= main@%_232_0 #x00000000000000000000000000badb0b)
                      (bvugt ((_ extract 9 0) main@%_6_0) #b1111101000)
                      (= main@%_234_0 #xffffffffffffffffffffffffdeadbeef))
                 #x0000000000000000000000000000000000000000000000000000000000000001
                 #x0000000000000000000000000000000000000000000000000000000000000000))
      (a!36 (ite (and (= main@%_258_0 #x00000000000000000000000000badb0b)
                      (bvugt ((_ extract 9 0) main@%_6_0) #b1111101000)
                      (= main@%_260_0 #xffffffffffffffffffffffffdeadbeef))
                 #x0000000000000000000000000000000000000000000000000000000000000001
                 #x0000000000000000000000000000000000000000000000000000000000000000))
      (a!40 (ite (and (= main@%_284_0 #x00000000000000000000000000badb0b)
                      (bvugt ((_ extract 9 0) main@%_6_0) #b1111101000)
                      (= main@%_286_0 #xffffffffffffffffffffffffdeadbeef))
                 #x0000000000000000000000000000000000000000000000000000000000000001
                 #x0000000000000000000000000000000000000000000000000000000000000000))
      (a!44 (ite (and (= main@%_310_0 #x00000000000000000000000000badb0b)
                      (bvugt ((_ extract 9 0) main@%_6_0) #b1111101000)
                      (= main@%_312_0 #xffffffffffffffffffffffffdeadbeef))
                 #x0000000000000000000000000000000000000000000000000000000000000001
                 #x0000000000000000000000000000000000000000000000000000000000000000))
      (a!48 (ite (and (= main@%_336_0 #x00000000000000000000000000badb0b)
                      (bvugt ((_ extract 9 0) main@%_6_0) #b1111101000)
                      (= main@%_338_0 #xffffffffffffffffffffffffdeadbeef))
                 #x0000000000000000000000000000000000000000000000000000000000000001
                 #x0000000000000000000000000000000000000000000000000000000000000000))
      (a!52 (ite (and (= main@%_362_0 #x00000000000000000000000000badb0b)
                      (bvugt ((_ extract 9 0) main@%_6_0) #b1111101000)
                      (= main@%_364_0 #xffffffffffffffffffffffffdeadbeef))
                 #x0000000000000000000000000000000000000000000000000000000000000001
                 #x0000000000000000000000000000000000000000000000000000000000000000))
      (a!56 (ite (and (= main@%_388_0 #x00000000000000000000000000badb0b)
                      (bvugt ((_ extract 9 0) main@%_6_0) #b1111101000)
                      (= main@%_390_0 #xffffffffffffffffffffffffdeadbeef))
                 #x0000000000000000000000000000000000000000000000000000000000000001
                 #x0000000000000000000000000000000000000000000000000000000000000000))
      (a!60 (ite (and (= main@%_414_0 #x00000000000000000000000000badb0b)
                      (bvugt ((_ extract 9 0) main@%_6_0) #b1111101000)
                      (= main@%_416_0 #xffffffffffffffffffffffffdeadbeef))
                 #x0000000000000000000000000000000000000000000000000000000000000001
                 #x0000000000000000000000000000000000000000000000000000000000000000))
      (a!64 (ite (and (= main@%_440_0 #x00000000000000000000000000badb0b)
                      (bvugt ((_ extract 9 0) main@%_6_0) #b1111101000)
                      (= main@%_442_0 #xffffffffffffffffffffffffdeadbeef))
                 #x0000000000000000000000000000000000000000000000000000000000000001
                 #x0000000000000000000000000000000000000000000000000000000000000000))
      (a!68 (ite (and (= main@%_466_0 #x00000000000000000000000000badb0b)
                      (bvugt ((_ extract 9 0) main@%_6_0) #b1111101000)
                      (= main@%_468_0 #xffffffffffffffffffffffffdeadbeef))
                 #x0000000000000000000000000000000000000000000000000000000000000001
                 #x0000000000000000000000000000000000000000000000000000000000000000))
      (a!72 (ite (and (= main@%_492_0 #x00000000000000000000000000badb0b)
                      (bvugt ((_ extract 9 0) main@%_6_0) #b1111101000)
                      (= main@%_493_0 #xffffffffffffffffffffffffdeadbeef))
                 #x0000000000000000000000000000000000000000000000000000000000000001
                 #x0000000000000000000000000000000000000000000000000000000000000000))
      (a!76 (ite (and (= main@%_518_0 #x00000000000000000000000000badb0b)
                      (bvugt ((_ extract 9 0) main@%_6_0) #b1111101000)
                      (= main@%_519_0 #xffffffffffffffffffffffffdeadbeef))
                 #x0000000000000000000000000000000000000000000000000000000000000001
                 #x0000000000000000000000000000000000000000000000000000000000000000)))
(let ((a!5 (ite (= ((_ extract 0 0) (bvor main@%_21_0 main@%_17_0)) #b1)
                (bvadd (bvmul a!2 a!3) a!4)
                (ite a!1
                     #x0000000000000000000000000000000000000000000000000000000000000001
                     #x0000000000000000000000000000000000000000000000000000000000000000)))
      (a!10 ((_ zero_extend 128)
              (ite (= ((_ extract 0 0) main@%_91_0) #b1) main@%_76_0 a!6)))
      (a!11 ((_ zero_extend 128)
              (ite (= ((_ extract 0 0) main@%_87_0) #b1) main@%_78_0 a!7)))
      (a!14 (ite (= ((_ extract 0 0) main@%_117_0) #b1)
                 main@%_102_0
                 (ite (= ((_ extract 0 0) main@%_91_0) #b1) main@%_76_0 a!6)))
      (a!15 (ite (= ((_ extract 0 0) main@%_113_0) #b1)
                 main@%_104_0
                 (ite (= ((_ extract 0 0) main@%_87_0) #b1) main@%_78_0 a!7))))
(let ((a!9 (ite (= ((_ extract 0 0) (bvor main@%_45_0 main@%_41_0)) #b1)
                (bvadd (bvmul ((_ zero_extend 128) a!6)
                              ((_ zero_extend 128) a!7))
                       a!8)
                a!5))
      (a!18 ((_ zero_extend 128)
              (ite (= ((_ extract 0 0) main@%_143_0) #b1) main@%_128_0 a!14)))
      (a!19 ((_ zero_extend 128)
              (ite (= ((_ extract 0 0) main@%_139_0) #b1) main@%_130_0 a!15)))
      (a!22 (ite (= ((_ extract 0 0) main@%_169_0) #b1)
                 main@%_154_0
                 (ite (= ((_ extract 0 0) main@%_143_0) #b1) main@%_128_0 a!14)))
      (a!23 (ite (= ((_ extract 0 0) main@%_165_0) #b1)
                 main@%_156_0
                 (ite (= ((_ extract 0 0) main@%_139_0) #b1) main@%_130_0 a!15))))
(let ((a!13 (ite (= ((_ extract 0 0) (bvor main@%_91_0 main@%_87_0)) #b1)
                 (bvadd (bvmul a!10 a!11) a!12)
                 a!9))
      (a!26 ((_ zero_extend 128)
              (ite (= ((_ extract 0 0) main@%_195_0) #b1) main@%_180_0 a!22)))
      (a!27 ((_ zero_extend 128)
              (ite (= ((_ extract 0 0) main@%_191_0) #b1) main@%_182_0 a!23)))
      (a!30 (ite (= ((_ extract 0 0) main@%_221_0) #b1)
                 main@%_206_0
                 (ite (= ((_ extract 0 0) main@%_195_0) #b1) main@%_180_0 a!22)))
      (a!31 (ite (= ((_ extract 0 0) main@%_217_0) #b1)
                 main@%_208_0
                 (ite (= ((_ extract 0 0) main@%_191_0) #b1) main@%_182_0 a!23))))
(let ((a!17 (ite (= ((_ extract 0 0) (bvor main@%_117_0 main@%_113_0)) #b1)
                 (bvadd (bvmul ((_ zero_extend 128) a!14)
                               ((_ zero_extend 128) a!15))
                        a!16)
                 a!13))
      (a!34 ((_ zero_extend 128)
              (ite (= ((_ extract 0 0) main@%_247_0) #b1) main@%_232_0 a!30)))
      (a!35 ((_ zero_extend 128)
              (ite (= ((_ extract 0 0) main@%_243_0) #b1) main@%_234_0 a!31)))
      (a!38 (ite (= ((_ extract 0 0) main@%_273_0) #b1)
                 main@%_258_0
                 (ite (= ((_ extract 0 0) main@%_247_0) #b1) main@%_232_0 a!30)))
      (a!39 (ite (= ((_ extract 0 0) main@%_269_0) #b1)
                 main@%_260_0
                 (ite (= ((_ extract 0 0) main@%_243_0) #b1) main@%_234_0 a!31))))
(let ((a!21 (ite (= ((_ extract 0 0) (bvor main@%_143_0 main@%_139_0)) #b1)
                 (bvadd (bvmul a!18 a!19) a!20)
                 a!17))
      (a!42 ((_ zero_extend 128)
              (ite (= ((_ extract 0 0) main@%_299_0) #b1) main@%_284_0 a!38)))
      (a!43 ((_ zero_extend 128)
              (ite (= ((_ extract 0 0) main@%_295_0) #b1) main@%_286_0 a!39)))
      (a!46 (ite (= ((_ extract 0 0) main@%_325_0) #b1)
                 main@%_310_0
                 (ite (= ((_ extract 0 0) main@%_299_0) #b1) main@%_284_0 a!38)))
      (a!47 (ite (= ((_ extract 0 0) main@%_321_0) #b1)
                 main@%_312_0
                 (ite (= ((_ extract 0 0) main@%_295_0) #b1) main@%_286_0 a!39))))
(let ((a!25 (ite (= ((_ extract 0 0) (bvor main@%_169_0 main@%_165_0)) #b1)
                 (bvadd (bvmul ((_ zero_extend 128) a!22)
                               ((_ zero_extend 128) a!23))
                        a!24)
                 a!21))
      (a!50 ((_ zero_extend 128)
              (ite (= ((_ extract 0 0) main@%_351_0) #b1) main@%_336_0 a!46)))
      (a!51 ((_ zero_extend 128)
              (ite (= ((_ extract 0 0) main@%_347_0) #b1) main@%_338_0 a!47)))
      (a!54 (ite (= ((_ extract 0 0) main@%_377_0) #b1)
                 main@%_362_0
                 (ite (= ((_ extract 0 0) main@%_351_0) #b1) main@%_336_0 a!46)))
      (a!55 (ite (= ((_ extract 0 0) main@%_373_0) #b1)
                 main@%_364_0
                 (ite (= ((_ extract 0 0) main@%_347_0) #b1) main@%_338_0 a!47))))
(let ((a!29 (ite (= ((_ extract 0 0) (bvor main@%_195_0 main@%_191_0)) #b1)
                 (bvadd (bvmul a!26 a!27) a!28)
                 a!25))
      (a!58 ((_ zero_extend 128)
              (ite (= ((_ extract 0 0) main@%_403_0) #b1) main@%_388_0 a!54)))
      (a!59 ((_ zero_extend 128)
              (ite (= ((_ extract 0 0) main@%_399_0) #b1) main@%_390_0 a!55)))
      (a!62 (ite (= ((_ extract 0 0) main@%_429_0) #b1)
                 main@%_414_0
                 (ite (= ((_ extract 0 0) main@%_403_0) #b1) main@%_388_0 a!54)))
      (a!63 (ite (= ((_ extract 0 0) main@%_425_0) #b1)
                 main@%_416_0
                 (ite (= ((_ extract 0 0) main@%_399_0) #b1) main@%_390_0 a!55))))
(let ((a!33 (ite (= ((_ extract 0 0) (bvor main@%_221_0 main@%_217_0)) #b1)
                 (bvadd (bvmul ((_ zero_extend 128) a!30)
                               ((_ zero_extend 128) a!31))
                        a!32)
                 a!29))
      (a!66 ((_ zero_extend 128)
              (ite (= ((_ extract 0 0) main@%_455_0) #b1) main@%_440_0 a!62)))
      (a!67 ((_ zero_extend 128)
              (ite (= ((_ extract 0 0) main@%_451_0) #b1) main@%_442_0 a!63)))
      (a!70 (ite (= ((_ extract 0 0) main@%_481_0) #b1)
                 main@%_466_0
                 (ite (= ((_ extract 0 0) main@%_455_0) #b1) main@%_440_0 a!62)))
      (a!71 (ite (= ((_ extract 0 0) main@%_477_0) #b1)
                 main@%_468_0
                 (ite (= ((_ extract 0 0) main@%_451_0) #b1) main@%_442_0 a!63))))
(let ((a!37 (ite (= ((_ extract 0 0) (bvor main@%_247_0 main@%_243_0)) #b1)
                 (bvadd (bvmul a!34 a!35) a!36)
                 a!33))
      (a!74 ((_ zero_extend 128)
              (ite (= ((_ extract 0 0) main@%_496_0) #b1) main@%_492_0 a!70)))
      (a!75 ((_ zero_extend 128)
              (ite (= ((_ extract 0 0) main@%_494_0) #b1) main@%_493_0 a!71))))
(let ((a!41 (ite (= ((_ extract 0 0) (bvor main@%_273_0 main@%_269_0)) #b1)
                 (bvadd (bvmul ((_ zero_extend 128) a!38)
                               ((_ zero_extend 128) a!39))
                        a!40)
                 a!37))
      (a!77 (ite (= ((_ extract 0 0) (bvor main@%_496_0 main@%_494_0)) #b1)
                 (bvadd (bvmul a!74 a!75) a!76)
                 (bvmul ((_ zero_extend 128) a!70) ((_ zero_extend 128) a!71)))))
(let ((a!45 (ite (= ((_ extract 0 0) (bvor main@%_299_0 main@%_295_0)) #b1)
                 (bvadd (bvmul a!42 a!43) a!44)
                 a!41))
      (a!78 (and true (xor (= (bvmul a!74 a!75) a!77) true))))
(let ((a!49 (ite (= ((_ extract 0 0) (bvor main@%_325_0 main@%_321_0)) #b1)
                 (bvadd (bvmul ((_ zero_extend 128) a!46)
                               ((_ zero_extend 128) a!47))
                        a!48)
                 a!45)))
(let ((a!53 (ite (= ((_ extract 0 0) (bvor main@%_351_0 main@%_347_0)) #b1)
                 (bvadd (bvmul a!50 a!51) a!52)
                 a!49)))
(let ((a!57 (ite (= ((_ extract 0 0) (bvor main@%_377_0 main@%_373_0)) #b1)
                 (bvadd (bvmul ((_ zero_extend 128) a!54)
                               ((_ zero_extend 128) a!55))
                        a!56)
                 a!53)))
(let ((a!61 (ite (= ((_ extract 0 0) (bvor main@%_403_0 main@%_399_0)) #b1)
                 (bvadd (bvmul a!58 a!59) a!60)
                 a!57)))
(let ((a!65 (ite (= ((_ extract 0 0) (bvor main@%_429_0 main@%_425_0)) #b1)
                 (bvadd (bvmul ((_ zero_extend 128) a!62)
                               ((_ zero_extend 128) a!63))
                        a!64)
                 a!61)))
(let ((a!69 (ite (= ((_ extract 0 0) (bvor main@%_455_0 main@%_451_0)) #b1)
                 (bvadd (bvmul a!66 a!67) a!68)
                 a!65)))
(let ((a!73 (ite (= ((_ extract 0 0) (bvor main@%_481_0 main@%_477_0)) #b1)
                 (bvadd (bvmul ((_ zero_extend 128) a!70)
                               ((_ zero_extend 128) a!71))
                        a!72)
                 a!69)))
(let ((a!79 (ite (= (bvmul ((_ zero_extend 128) a!70)
                           ((_ zero_extend 128) a!71))
                    a!73)
                 a!78
                 true)))
(let ((a!80 (ite (= (bvmul ((_ zero_extend 128) a!62)
                           ((_ zero_extend 128) a!63))
                    a!65)
                 (ite (= (bvmul a!66 a!67) a!69) a!79 true)
                 true)))
(let ((a!81 (ite (= (bvmul ((_ zero_extend 128) a!54)
                           ((_ zero_extend 128) a!55))
                    a!57)
                 (ite (= (bvmul a!58 a!59) a!61) a!80 true)
                 true)))
(let ((a!82 (ite (= (bvmul ((_ zero_extend 128) a!46)
                           ((_ zero_extend 128) a!47))
                    a!49)
                 (ite (= (bvmul a!50 a!51) a!53) a!81 true)
                 true)))
(let ((a!83 (ite (= (bvmul ((_ zero_extend 128) a!38)
                           ((_ zero_extend 128) a!39))
                    a!41)
                 (ite (= (bvmul a!42 a!43) a!45) a!82 true)
                 true)))
(let ((a!84 (ite (= (bvmul ((_ zero_extend 128) a!30)
                           ((_ zero_extend 128) a!31))
                    a!33)
                 (ite (= (bvmul a!34 a!35) a!37) a!83 true)
                 true)))
(let ((a!85 (ite (= (bvmul ((_ zero_extend 128) a!22)
                           ((_ zero_extend 128) a!23))
                    a!25)
                 (ite (= (bvmul a!26 a!27) a!29) a!84 true)
                 true)))
(let ((a!86 (ite (= (bvmul ((_ zero_extend 128) a!14)
                           ((_ zero_extend 128) a!15))
                    a!17)
                 (ite (= (bvmul a!18 a!19) a!21) a!85 true)
                 true)))
(let ((a!87 (ite (= (bvmul ((_ zero_extend 128) a!6) ((_ zero_extend 128) a!7))
                    a!9)
                 (ite (= (bvmul a!10 a!11) a!13) a!86 true)
                 true)))
  (ite a!1 true (ite (= (bvmul a!2 a!3) a!5) a!87 true)))))))))))))))))))))))))))))))

(check-sat)
